120
1000
199
199
198
198
198
198
198
198
198
195
194
194
193
192
191
191
191
191
191
191
190
190
190
188
188
188
187
187
187
186
186
186
186
185
184
184
184
183
183
183
182
181
181
181
179
179
178
177
177
177
177
176
175
174
174
174
174
173
172
171
171
171
170
170
169
168
168
167
166
166
166
165
165
165
165
165
164
164
163
163
163
162
162
161
161
160
160
159
159
159
158
158
158
158
158
157
157
157
155
155
155
154
154
154
154
154
154
153
153
153
152
152
151
151
151
151
151
150
150
150
